Traveling Salesman Problem/TSP_generados/Aleatorio1621103257_6.tsp
NAME: Aleatorio1621103257_6.tsp
COMMENT: Randomly generated scenario
TYPE: TSP
DIMENSION: 6
EDGE_WEIGHT_TYPE: ATT
NODE_COORD_SECTION
1 16.55 40.35
2 38.56 34.61
3 35.8 21.97
4 43.63 14.98
5 45.99 40.82
6 21.07 39.81
