Traveling Salesman Problem/TSP_generados/Aleatorio1621103257_6.opt.tour
NAME: Aleatorio1621103257_6.opt.tour
COMMENT: Optimal solution for Aleatorio1621103257_6 (95.54145602475974)
TYPE: TOUR
DIMENSION: 6
TOUR_SECTION
1 3 4 5 2 6
-1
EOF
